100
32
9
5
6
17
4
9
11
10
1
1
17
4
17
1
7
1
2
1
20
4
2
1
1
4
5
19
18
3
1
2
1
4
1
1
2
4
1
18
4
18
4
1
1
1
3
1
1
2
1
1
5
4
4
18
1
18
3
1
6
1
17
2
3
1
1
2
4
1
20
5
2
2
2
1
3
3
1
3
16
10
2
1
2
1
2
1
1
1
1
1
1
1
17
1
1
7
2
1
1
2